db/data/27047322111879631551955765742913815686.z3.out
sat
-------------------
297.911005655
